Using license file /home/benedond/gurobi.lic
Using gurobi.env file
Set parameter Threads to value 1
Academic license - for non-commercial use only
Changed value of parameter TimeLimit to 300.0
   Prev: inf  Min: 0.0  Max: inf  Default: inf
Gurobi Optimizer version 9.0.1 build v9.0.1rc0 (linux64)
Optimize a model with 240 rows, 210 columns and 828 nonzeros
Model fingerprint: 0x8ea04445
Variable types: 10 continuous, 200 integer (200 binary)
Coefficient statistics:
  Matrix range     [1e+00, 4e+02]
  Objective range  [4e+01, 4e+02]
  Bounds range     [1e+00, 1e+00]
  RHS range        [1e+00, 5e+02]
Presolve removed 146 rows and 133 columns
Presolve time: 0.01s
Presolved: 94 rows, 77 columns, 564 nonzeros
Variable types: 9 continuous, 68 integer (68 binary)

Root relaxation: objective 8.009307e+02, 57 iterations, 0.00 seconds

    Nodes    |    Current Node    |     Objective Bounds      |     Work
 Expl Unexpl |  Obj  Depth IntInf | Incumbent    BestBd   Gap | It/Node Time

     0     0  800.93068    0   15          -  800.93068      -     -    0s
H    0     0                    1214.0000000  800.93068  34.0%     -    0s
H    0     0                    1117.0000000  800.93068  28.3%     -    0s
     0     0  953.33333    0   20 1117.00000  953.33333  14.7%     -    0s
     0     0  976.69833    0   23 1117.00000  976.69833  12.6%     -    0s
H    0     0                    1085.0000000  976.69833  10.0%     -    0s
     0     0  976.94313    0   23 1085.00000  976.94313  10.0%     -    0s
     0     0  976.99212    0   24 1085.00000  976.99212  10.0%     -    0s
     0     0  991.91291    0   25 1085.00000  991.91291  8.58%     -    0s
     0     0  993.00000    0   19 1085.00000  993.00000  8.48%     -    0s
     0     0  993.00000    0   21 1085.00000  993.00000  8.48%     -    0s
     0     0  994.60000    0   22 1085.00000  994.60000  8.33%     -    0s
     0     0  994.75000    0   22 1085.00000  994.75000  8.32%     -    0s
     0     0  994.75000    0   22 1085.00000  994.75000  8.32%     -    0s
     0     0  994.91183    0   23 1085.00000  994.91183  8.30%     -    0s
     0     0  995.17750    0   26 1085.00000  995.17750  8.28%     -    0s
     0     0  995.17750    0   26 1085.00000  995.17750  8.28%     -    0s
     0     0 1000.16667    0   22 1085.00000 1000.16667  7.82%     -    0s
     0     0 1000.16667    0   24 1085.00000 1000.16667  7.82%     -    0s
     0     0 1003.00000    0   17 1085.00000 1003.00000  7.56%     -    0s
     0     0 1003.00000    0   17 1085.00000 1003.00000  7.56%     -    0s
     0     0 1003.04348    0   22 1085.00000 1003.04348  7.55%     -    0s
     0     0 1003.04348    0   23 1085.00000 1003.04348  7.55%     -    0s
     0     0 1003.08696    0   23 1085.00000 1003.08696  7.55%     -    0s
     0     0 1018.46082    0   18 1085.00000 1018.46082  6.13%     -    0s
     0     0 1018.56761    0   18 1085.00000 1018.56761  6.12%     -    0s
     0     0 1018.56761    0   18 1085.00000 1018.56761  6.12%     -    0s
     0     0 1031.56193    0   13 1085.00000 1031.56193  4.93%     -    0s
     0     0 1031.56193    0   19 1085.00000 1031.56193  4.93%     -    0s
     0     0 1031.56193    0   18 1085.00000 1031.56193  4.93%     -    0s
     0     0 1031.56193    0   19 1085.00000 1031.56193  4.93%     -    0s
     0     0 1031.56193    0   19 1085.00000 1031.56193  4.93%     -    0s
     0     0 1031.56193    0   18 1085.00000 1031.56193  4.93%     -    0s
     0     0 1032.01632    0   17 1085.00000 1032.01632  4.88%     -    0s
     0     0 1032.15668    0   18 1085.00000 1032.15668  4.87%     -    0s
     0     0 1032.53949    0   19 1085.00000 1032.53949  4.84%     -    0s
     0     0 1032.62859    0   22 1085.00000 1032.62859  4.83%     -    0s
     0     0 1034.27524    0   20 1085.00000 1034.27524  4.68%     -    0s
     0     0 1034.46414    0   20 1085.00000 1034.46414  4.66%     -    0s
     0     0 1054.57188    0   22 1085.00000 1054.57188  2.80%     -    0s
     0     0     cutoff    0      1085.00000 1085.00000  0.00%     -    0s

Cutting planes:
  Gomory: 1
  Clique: 2
  MIR: 1
  GUB cover: 2

Explored 1 nodes (443 simplex iterations) in 0.08 seconds
Thread count was 1 (of 4 available processors)

Solution count 3: 1085 1117 1214 

Optimal solution found (tolerance 1.00e-04)
Best objective 1.085000000000e+03, best bound 1.085000000000e+03, gap 0.0000%
